(set-info :status unsat)
(declare-codatatypes ((T 0)) ((
  (f0)
  (f1 (proj0f1 T) (proj1f1 T) (proj2f1 T))
  (f2 (proj0f2 T)))))
(assert (exists ((y16191 T) (y16192 T) (y16193 T) (y16194 T) (y16189 T) (y16185 T) (y16184 T) (y16183 T) (y16182 T) (y16181 T) (y16180 T) (y16178 T)) (forall ((x16195 T) (x16203 T) (x16202 T) (x16201 T) (x16200 T) (x16204 T) (x16198 T)) 
  (or 
    (and (= x16200 (f1 x16204 (f1 PLACEHOLDER PLACEHOLDER PLACEHOLDER) (f2 PLACEHOLDER))) (= x16204 (f1 x16200 PLACEHOLDER PLACEHOLDER)) (= y16178 (f1 y16180 (f1 PLACEHOLDER PLACEHOLDER PLACEHOLDER) (f2 PLACEHOLDER))) (= y16180 (f1 y16178 PLACEHOLDER PLACEHOLDER)) (distinct x16200 y16178)) 
    (and (= y16181 (f1 y16183 (f1 (f1 PLACEHOLDER PLACEHOLDER PLACEHOLDER) (f2 PLACEHOLDER) (f2 PLACEHOLDER)) PLACEHOLDER)) (= y16183 (f1 y16184 PLACEHOLDER (f2 PLACEHOLDER))) (= y16184 (f1 y16181 PLACEHOLDER PLACEHOLDER)) (= y16182 (f1 (f1 y16185 PLACEHOLDER (f2 PLACEHOLDER)) (f1 (f1 PLACEHOLDER PLACEHOLDER PLACEHOLDER) (f2 PLACEHOLDER) (f2 PLACEHOLDER)) PLACEHOLDER)) (= y16185 (f1 y16182 PLACEHOLDER PLACEHOLDER)) (distinct y16181 y16182)) 
    (and (= x16202 (f1 x16202 x16202 PLACEHOLDER)) (= x16201 (f1 x16201 x16201 PLACEHOLDER)) (distinct x16202 x16201)) 
    (and (= x16198 x16203) (= x16195 (f2 y16191)) (= y16191 (f1 y16192 (f2 (f2 PLACEHOLDER)) (f2 (f1 PLACEHOLDER PLACEHOLDER PLACEHOLDER)))) (= y16192 (f2 y16193)) (= y16193 (f2 x16198)) (= y16189 (f1 (f2 (f1 (f2 y16194) (f2 (f2 PLACEHOLDER)) (f2 (f1 PLACEHOLDER PLACEHOLDER PLACEHOLDER)))) (f1 (f2 PLACEHOLDER) (f1 PLACEHOLDER PLACEHOLDER PLACEHOLDER) (f1 PLACEHOLDER PLACEHOLDER PLACEHOLDER)) (f1 PLACEHOLDER PLACEHOLDER PLACEHOLDER))) (= y16194 (f2 y16189)) (distinct x16198 y16189))))))
(check-sat)
